c description: Random 3-CNF over 20 variables and 85 clauses
c generator: CNFgen (0.9.2)
c copyright: (C) 2012-2022 Massimo Lauria <massimo.lauria@uniroma1.it>
c url: https://massimolauria.net/cnfgen
c command line: cnfgen --output CNF_4.28/20_bit_85_720.cnf randkcnf 3 20 85
c
p cnf 20 85
5 9 13 0
2 9 19 0
-2 -6 14 0
-11 -16 18 0
4 -15 -17 0
-8 11 16 0
1 7 13 0
-3 -5 12 0
1 -9 15 0
5 9 15 0
-2 8 -15 0
3 -13 16 0
-4 5 -20 0
-1 4 8 0
-5 14 15 0
-6 -7 18 0
11 -13 15 0
-1 -2 -17 0
-4 15 -18 0
-5 -7 8 0
-8 15 -17 0
-2 3 -18 0
-8 10 11 0
9 17 -18 0
-8 9 -12 0
-1 -7 10 0
-9 -10 -18 0
-2 -9 -11 0
8 -14 -17 0
-6 8 14 0
-9 11 20 0
2 7 -13 0
10 14 18 0
2 10 -14 0
-7 -14 15 0
-6 10 14 0
-2 4 15 0
-11 -13 20 0
-1 2 -19 0
6 -9 -10 0
-1 -6 -8 0
-1 2 11 0
9 -10 11 0
-2 9 17 0
1 -4 16 0
-6 14 -19 0
-10 -11 13 0
1 -13 18 0
4 5 13 0
-2 -16 -20 0
-2 -4 5 0
-11 -15 16 0
-14 18 20 0
2 5 15 0
-2 -14 15 0
7 -9 -17 0
3 8 -11 0
15 -17 20 0
-7 -10 -19 0
1 3 5 0
-2 -10 -14 0
-2 9 -11 0
1 -12 -20 0
-10 18 -19 0
-6 -11 -15 0
-1 7 13 0
1 6 17 0
8 -13 16 0
-4 -10 -12 0
3 -9 12 0
-3 -10 19 0
4 -11 -19 0
-4 17 -19 0
-1 -9 -14 0
10 -11 16 0
4 6 12 0
3 6 -19 0
-3 7 -9 0
2 16 -18 0
3 -14 -15 0
-3 -6 -10 0
-4 -14 -18 0
-2 -9 19 0
-1 6 17 0
-8 12 19 0
